NAME : A-n45-k7.685155.tour
COMMENT : Length = 685155
COMMENT : Found by LKH [Keld Helsgaun] Sun Dec 17 18:38:42 2017
TYPE : TOUR
DIMENSION : 51
TOUR_SECTION
1
3
25
45
34
28
42
50
13
7
29
4
12
44
46
40
36
35
27
5
49
33
14
19
41
8
17
21
47
22
15
6
37
20
32
30
48
9
39
18
24
26
16
43
2
51
10
11
23
31
38
-1
EOF
